* Signature: 0x8bc1aa1253dc08ab
NAME lp_typeD_110
OBJSENSE MAX
ROWS
 N  OBJ
 L  c0      
 G  c1      
 G  c2      
 L  c_key_upper
 G  c_key_lower
 G  _chain_constr_1
 G  _chain_constr_2
 G  _chain_constr_3
 G  _chain_cycle
COLUMNS
    x0        OBJ       5.7571457554009708e-01
    x0        c0        6.2794689844802809e-01
    x0        c1        5.9192287297909563e-01
    x0        c2        9.9594891045687417e-01
    x0        c_key_upper  1.9106299088493746e+00
    x0        c_key_lower  1.9106299088493746e+00
    x1        OBJ       1.0518025460151499e+00
    x1        c0        8.9797341940511477e-01
    x1        c1        1.7067798416005884e+00
    x1        c2        9.5520984355387828e-01
    x1        c_key_upper  1.3684034801457203e+00
    x1        c_key_lower  1.3684034801457203e+00
    x2        OBJ       1.3873851555549086e+00
    x2        c0        1.8861387486085237e+00
    x2        c1        7.5479324372634693e-01
    x2        c2        5.7215659223795690e-01
    x2        c_key_upper  1.8925869863064309e+00
    x2        c_key_lower  1.8925869863064309e+00
    x3        OBJ       1.1091442333142916e+00
    x3        c0        6.4014500022781029e-01
    x3        c1        1.5634013630288974e+00
    x3        c2        1.9260712850537542e+00
    x3        c_key_upper  1.3042704798985498e+00
    x3        c_key_lower  1.3042704798985498e+00
    x4        OBJ       1.2518378051758841e+00
    x4        c0        1.3035594187339585e+00
    x4        c1        5.2569790873896849e-01
    x4        c2        1.1331197890270763e+00
    x4        c_key_upper  1.0903013778756823e+00
    x4        c_key_lower  1.0903013778756823e+00
    x5        OBJ       8.5929044528777720e-01
    x5        c0        1.4292928347866498e+00
    x5        c1        1.5270361307692062e+00
    x5        c2        1.8231730339480583e+00
    x5        c_key_upper  1.9022103803687394e+00
    x5        c_key_lower  1.9022103803687394e+00
    x6        OBJ       1.1003912917942835e+00
    x6        c0        1.9913778356517777e+00
    x6        c1        1.7109755178072095e+00
    x6        c2        8.6742096617997466e-01
    x6        c_key_upper  1.1025957925663095e+00
    x6        c_key_lower  1.1025957925663095e+00
    x7        OBJ       1.0071166725092222e+00
    x7        c0        5.5507560855863636e-01
    x7        c1        1.8073923529422107e+00
    x7        c2        6.7312855728561627e-01
    x7        c_key_upper  1.5521318939577013e+00
    x7        c_key_lower  1.5521318939577013e+00
    x8        OBJ       1.3934706149686709e+00
    x8        c0        1.7600932758505061e+00
    x8        c1        7.3724178217850178e-01
    x8        c2        1.5486481013615991e+00
    x8        c_key_upper  1.0305128915390633e+00
    x8        c_key_lower  1.0305128915390633e+00
    _chain_var_0  _chain_constr_1  -1
    _chain_var_0  _chain_cycle  1
    _chain_var_1  _chain_constr_1  1
    _chain_var_1  _chain_constr_2  -1
    _chain_var_2  _chain_constr_2  1
    _chain_var_2  _chain_constr_3  -1
    _chain_var_3  _chain_constr_3  1
    _chain_var_3  _chain_cycle  -1
RHS
    RHS1      c0        4.7214282628164419e+01
    RHS1      c1        1.5570155686527006e+01
    RHS1      c2        1.4038864565597956e+01
    RHS1      c_key_upper  6.5768215957537848e+01
    RHS1      c_key_lower  3.2884107978768924e+01
    RHS1      _chain_constr_1  10
    RHS1      _chain_constr_2  10
    RHS1      _chain_constr_3  10
    RHS1      _chain_cycle  10
BOUNDS
 UP BND1      x0        10
 UP BND1      x1        10
 UP BND1      x2        10
 UP BND1      x3        10
 UP BND1      x4        10
 UP BND1      x5        10
 UP BND1      x6        10
 UP BND1      x7        10
 UP BND1      x8        10
 UP BND1      _chain_var_0  100
 UP BND1      _chain_var_1  100
 UP BND1      _chain_var_2  100
 UP BND1      _chain_var_3  100
ENDATA
